NAME : A-n32-k5
COMMENT : (Augerat et al, No of trucks: 2, Optimal value: 400)
TYPE : CVRP
DIMENSION : 32
EDGE_WEIGHT_TYPE : EUC_2D 
CAPACITY : 2
NODE_COORD_SECTION 
 1 0 0
 2 100.001 100.001
 3 99.999 99.999
 4 99.999 100.001
DEMAND_SECTION 
1 0 
2 1 
3 1 
4 1 
DEPOT_SECTION 
 1  
 -1  
EOF 


